\ENCODING=ISO-8859-1
\Problem name: 

Maximize
 obj: 248503.98363514 x0 - 137794.008237435 x1 + 309238.531676991 x2
      - 5031176.87393378 x3 - 105021.236727578 x4 - 158133.973570836 x5
      - 838622.900951687 x6 - 137764.061427583 x7 - 524230.419444313 x8
      + 434192.495166066 x9 + 10464764.9361581 x10 - 434009.832714012 x11
      + 14424560.5756705 x12 - 136852.324394683 x13 - 204597.703375117 x14
      + 114577.189312397 x15 - 101518.881591696 x16 - 63559.9571334454 x17
      + 24353.3102738979 x18 - 137763.112753047 x19 - 10040833.7691828 x20
      - 82634.7327614804 x21 - 105025.10017101 x22 + 66047.595274795 x23
      - 401235.439689831 x24 + 4116038.74401069 x25 + 401434.941957897 x26
      - 491452.734111933 x27 - 104971.157793515 x28 - 913966.307566323 x29
      - 159723.096272 x30 - 135917.031552504 x31 + 191041.47312266 x32
      + 496621.939078108 x33 - 105286.535679269 x34 + 16005827.0348445 x35
      - 1762438.15227248 x36 + 914960.170430307 x37 + 1587767.54585518 x38
      - 2739127.44763849 x39 - 64716164.3060845 x40 + 2818208.8270439 x41
      + 26770326.1898989 x42 + 869251.628516338 x43 - 994987.375419509 x44
      + 829171.696193733 x45 + 254911.424662998 x46 - 59374.5679418948 x47
      + 1138668.39733921 x48 + 914993.56941022 x49 - 18728589.5318623 x50
      - 356190.925493418 x51 + 254917.577512849 x52 + 10183216.3271904 x53
      + 1720296.15189174 x54 + 14768741.5233668 x55 + 381895.979429713 x56
      - 1655006.50022674 x57 + 438712.646193194 x58 + 1655404.66333166 x59
      + 433264.833562783 x60 + 914939.186652069 x61 - 426683.427041506 x62
      - 121409680.712489 x63 + 119100.931007131 x64 + 745469.696101671 x65
      + 1433374.76412893 x66 + 980347.271522144 x67 + 7811382.94362492 x68
      + 174867.371255888 x69 + 254913.762559844 x70 + 46412681.4272383 x71
Subject To
 c0:  x0 + x1 + x2 + x3 + x4 + x5  = 1
 c1:  x6 + x7 + x8 + x9 + x10 + x11  = 1
 c2:  x12 + x13 + x14 + x15 + x16 + x17  = 1
 c3:  x18 + x19 + x20 + x21 + x22 + x23  = 1
 c4:  x24 + x25 + x26 + x27 + x28 + x29  = 1
 c5:  x30 + x31 + x32 + x33 + x34 + x35  = 1
 c6:  x36 + x37 + x38 + x39 + x40 + x41  = 1
 c7:  x42 + x43 + x44 + x45 + x46 + x47  = 1
 c8:  x48 + x49 + x50 + x51 + x52 + x53  = 1
 c9:  x54 + x55 + x56 + x57 + x58 + x59  = 1
 c10: x60 + x61 + x62 + x63 + x64 + x65  = 1
 c11: x66 + x67 + x68 + x69 + x70 + x71  = 1
 c12: x0 + x6 + x12 + x18 + x24 + x30  = 1
 c13: x1 + x7 + x13 + x19 + x25 + x31  = 1
 c14: x2 + x8 + x14 + x20 + x26 + x32  = 1
 c15: x3 + x9 + x15 + x21 + x27 + x33  = 1
 c16: x4 + x10 + x16 + x22 + x28 + x34  = 1
 c17: x5 + x11 + x17 + x23 + x29 + x35  = 1
 c18: x36 + x42 + x48 + x54 + x60 + x66  = 1
 c19: x37 + x43 + x49 + x55 + x61 + x67  = 1
 c20: x38 + x44 + x50 + x56 + x62 + x68  = 1
 c21: x39 + x45 + x51 + x57 + x63 + x69  = 1
 c22: x40 + x46 + x52 + x58 + x64 + x70  = 1
 c23: x41 + x47 + x53 + x59 + x65 + x71  = 1
Bounds
 0 <= x0 <= 1
 0 <= x1 <= 1
 0 <= x2 <= 1
 0 <= x3 <= 1
 0 <= x4 <= 1
 0 <= x5 <= 1
 0 <= x6 <= 1
 0 <= x7 <= 1
 0 <= x8 <= 1
 0 <= x9 <= 1
 0 <= x10 <= 1
 0 <= x11 <= 1
 0 <= x12 <= 1
 0 <= x13 <= 1
 0 <= x14 <= 1
 0 <= x15 <= 1
 0 <= x16 <= 1
 0 <= x17 <= 1
 0 <= x18 <= 1
 0 <= x19 <= 1
 0 <= x20 <= 1
 0 <= x21 <= 1
 0 <= x22 <= 1
 0 <= x23 <= 1
 0 <= x24 <= 1
 0 <= x25 <= 1
 0 <= x26 <= 1
 0 <= x27 <= 1
 0 <= x28 <= 1
 0 <= x29 <= 1
 0 <= x30 <= 1
 0 <= x31 <= 1
 0 <= x32 <= 1
 0 <= x33 <= 1
 0 <= x34 <= 1
 0 <= x35 <= 1
 0 <= x36 <= 1
 0 <= x37 <= 1
 0 <= x38 <= 1
 0 <= x39 <= 1
 0 <= x40 <= 1
 0 <= x41 <= 1
 0 <= x42 <= 1
 0 <= x43 <= 1
 0 <= x44 <= 1
 0 <= x45 <= 1
 0 <= x46 <= 1
 0 <= x47 <= 1
 0 <= x48 <= 1
 0 <= x49 <= 1
 0 <= x50 <= 1
 0 <= x51 <= 1
 0 <= x52 <= 1
 0 <= x53 <= 1
 0 <= x54 <= 1
 0 <= x55 <= 1
 0 <= x56 <= 1
 0 <= x57 <= 1
 0 <= x58 <= 1
 0 <= x59 <= 1
 0 <= x60 <= 1
 0 <= x61 <= 1
 0 <= x62 <= 1
 0 <= x63 <= 1
 0 <= x64 <= 1
 0 <= x65 <= 1
 0 <= x66 <= 1
 0 <= x67 <= 1
 0 <= x68 <= 1
 0 <= x69 <= 1
 0 <= x70 <= 1
 0 <= x71 <= 1
End
